(set-logic HORN)

(declare-fun __VERIFIER_assert (Int) Bool)
(declare-fun $main_if181 (Int Int Int Int Int) Bool)
(declare-fun $main_if188 (Int Int Int Int Int) Bool)
(declare-fun $assume_abort_if_not_if176 (Int) Bool)
(declare-fun $assume_abort_if_not_pre (Int) Bool)
(declare-fun $main_if186 (Int Int Int Int Int) Bool)
(declare-fun $main_if189 (Int Int Int Int Int) Bool)
(declare-fun $__VERIFIER_assert_ERROR (Int) Bool)
(declare-fun $main_if179 (Int Int Int Int Int) Bool)
(declare-fun $__VERIFIER_assert_pre (Int) Bool)
(declare-fun $main_sum449 (Int Int Int Int Int) Bool)
(declare-fun $main_if187 (Int Int Int Int Int) Bool)
(declare-fun $main_if190 (Int Int Int Int Int) Bool)
(declare-fun assume_abort_if_not (Int) Bool)
(declare-fun $main_if178 (Int Int Int Int Int) Bool)
(declare-fun $__VERIFIER_assert_if177 (Int) Bool)
(declare-fun $main_sum450 (Int Int Int Int Int) Bool)
(declare-fun $main_inv449 (Int Int Int Int Int) Bool)
(declare-fun $main_if184 (Int Int Int Int Int) Bool)
(declare-fun $main_if182 (Int Int Int Int Int) Bool)
(declare-fun $main_inv450 (Int Int Int Int Int) Bool)
(declare-fun $main_if183 (Int Int Int Int Int) Bool)
(declare-fun $main_END (Int Int Int Int Int) Bool)
(declare-fun $main_if180 (Int Int Int Int Int) Bool)
(declare-fun $main_if185 (Int Int Int Int Int) Bool)

; if else
(assert
  (forall ((cond Int))
    (=> (and (not (= cond 0))
             ($assume_abort_if_not_pre cond))
        ($assume_abort_if_not_if176 cond))))

; post assume_abort_if_not
(assert
  (forall ((cond5753 Int))
    (=> (and ($assume_abort_if_not_if176 cond5753))
        (assume_abort_if_not cond5753))))

; label ERROR
(assert
  (forall ((cond Int))
    (=> (and (= cond 0)
             ($__VERIFIER_assert_pre cond))
        ($__VERIFIER_assert_ERROR cond))))

; error
(assert
  (forall ((cond5754 Int))
    (=> (and ($__VERIFIER_assert_ERROR cond5754))
        false)))

; if else
(assert
  (forall ((cond Int))
    (=> (and (not (= cond 0))
             ($__VERIFIER_assert_pre cond))
        ($__VERIFIER_assert_if177 cond))))

; post __VERIFIER_assert
(assert
  (forall ((cond5755 Int))
    (=> (and ($__VERIFIER_assert_if177 cond5755))
        (__VERIFIER_assert cond5755))))

; if else
(assert
  (forall (($int5758 Int) ($c571 Int) ($int5757 Int) ($int5756 Int) ($cp570 Int))
    (=> (and (<= $int5756 1000000)
             (>= $int5756 (- 1000000))
             (<= (- 2147483648) $int5758)
             (<= $int5758 2147483647)
             (<= (- 2147483648) $int5757)
             (<= $int5757 2147483647)
             (<= (- 2147483648) $int5756)
             (<= $int5756 2147483647))
        ($main_if178 $int5758 $int5756 $int5757 $cp570 $c571))))

; if else
(assert
  (forall (($scheme5675759 Int) ($tokenlen5695761 Int) ($urilen5685760 Int) ($c5715763 Int) ($cp5705762 Int))
    (=> (and (<= $tokenlen5695761 1000000)
             (>= $tokenlen5695761 (- 1000000))
             ($main_if178 $scheme5675759 $urilen5685760 $tokenlen5695761 $cp5705762 $c5715763))
        ($main_if179 $scheme5675759 $urilen5685760 $tokenlen5695761 $cp5705762 $c5715763))))

; if else
(assert
  (forall (($c5715768 Int) ($urilen5685765 Int) ($scheme5675764 Int) ($tokenlen5695766 Int) ($cp5705767 Int))
    (=> (and (<= $scheme5675764 1000000)
             (>= $scheme5675764 (- 1000000))
             ($main_if179 $scheme5675764 $urilen5685765 $tokenlen5695766 $cp5705767 $c5715768))
        ($main_if180 $scheme5675764 $urilen5685765 $tokenlen5695766 $cp5705767 $c5715768))))

; goto END
(assert
  (forall (($tokenlen5695771 Int) ($urilen5685770 Int) ($c5715773 Int) ($scheme5675769 Int) ($cp5705772 Int))
    (=> (and (not (> $urilen5685770 0))
             ($main_if180 $scheme5675769 $urilen5685770 $tokenlen5695771 $cp5705772 $c5715773))
        ($main_END $scheme5675769 $urilen5685770 $tokenlen5695771 $cp5705772 $c5715773))))

; if then
(assert
  (forall (($tokenlen5695771 Int) ($urilen5685770 Int) ($c5715773 Int) ($scheme5675769 Int) ($cp5705772 Int))
    (=> (and (> $urilen5685770 0)
             ($main_if180 $scheme5675769 $urilen5685770 $tokenlen5695771 $cp5705772 $c5715773))
        ($main_if181 $scheme5675769 $urilen5685770 $tokenlen5695771 $cp5705772 $c5715773))))

; goto END
(assert
  (forall (($tokenlen5695776 Int) ($cp5705777 Int) ($c5715778 Int) ($scheme5675774 Int) ($urilen5685775 Int))
    (=> (and (not (> $tokenlen5695776 0))
             ($main_if181 $scheme5675774 $urilen5685775 $tokenlen5695776 $cp5705777 $c5715778))
        ($main_END $scheme5675774 $urilen5685775 $tokenlen5695776 $cp5705777 $c5715778))))

; if then
(assert
  (forall (($tokenlen5695776 Int) ($cp5705777 Int) ($c5715778 Int) ($scheme5675774 Int) ($urilen5685775 Int))
    (=> (and (> $tokenlen5695776 0)
             ($main_if181 $scheme5675774 $urilen5685775 $tokenlen5695776 $cp5705777 $c5715778))
        ($main_if182 $scheme5675774 $urilen5685775 $tokenlen5695776 $cp5705777 $c5715778))))

; goto END
(assert
  (forall (($scheme5675779 Int) ($tokenlen5695781 Int) ($c5715783 Int) ($urilen5685780 Int) ($cp5705782 Int))
    (=> (and (not (>= $scheme5675779 0))
             ($main_if182 $scheme5675779 $urilen5685780 $tokenlen5695781 $cp5705782 $c5715783))
        ($main_END $scheme5675779 $urilen5685780 $tokenlen5695781 $cp5705782 $c5715783))))

; if then
(assert
  (forall (($scheme5675779 Int) ($tokenlen5695781 Int) ($c5715783 Int) ($urilen5685780 Int) ($cp5705782 Int))
    (=> (and (>= $scheme5675779 0)
             ($main_if182 $scheme5675779 $urilen5685780 $tokenlen5695781 $cp5705782 $c5715783))
        ($main_if183 $scheme5675779 $urilen5685780 $tokenlen5695781 $cp5705782 $c5715783))))

; goto END
(assert
  (forall (($cp5705787 Int) ($urilen5685785 Int) ($tokenlen5695786 Int) ($scheme5675784 Int) ($c5715788 Int))
    (=> (and (or (= $scheme5675784 0) (< (- $urilen5685785 1) $scheme5675784))
             ($main_if183 $scheme5675784 $urilen5685785 $tokenlen5695786 $cp5705787 $c5715788))
        ($main_END $scheme5675784 $urilen5685785 $tokenlen5695786 $cp5705787 $c5715788))))

; if else
(assert
  (forall (($cp5705787 Int) ($urilen5685785 Int) ($tokenlen5695786 Int) ($scheme5675784 Int) ($c5715788 Int))
    (=> (and (not (or (= $scheme5675784 0) (< (- $urilen5685785 1) $scheme5675784)))
             ($main_if183 $scheme5675784 $urilen5685785 $tokenlen5695786 $cp5705787 $c5715788))
        ($main_if184 $scheme5675784 $urilen5685785 $tokenlen5695786 $cp5705787 $c5715788))))

; __VERIFIER_assert precondition
(assert
  (forall (($cp5705792 Int) ($tokenlen5695791 Int) ($urilen5685790 Int) ($c5715793 Int) ($scheme5675789 Int))
    (=> (and ($main_if184 $scheme5675789 $urilen5685790 $tokenlen5695791 $cp5705792 $c5715793))
        ($__VERIFIER_assert_pre (ite (< (- $scheme5675789 1) $urilen5685790) 1 0)))))

; __VERIFIER_assert precondition
(assert
  (forall (($cp5705792 Int) ($tokenlen5695791 Int) ($urilen5685790 Int) ($c5715793 Int) ($scheme5675789 Int))
    (=> (and (__VERIFIER_assert (ite (< (- $scheme5675789 1) $urilen5685790) 1 0))
             ($main_if184 $scheme5675789 $urilen5685790 $tokenlen5695791 $cp5705792 $c5715793))
        ($__VERIFIER_assert_pre (ite (<= 0 (- $scheme5675789 1)) 1 0)))))

; __VERIFIER_assert precondition
(assert
  (forall (($cp5705792 Int) ($tokenlen5695791 Int) ($int5794 Int) ($urilen5685790 Int) ($c5715793 Int) ($scheme5675789 Int))
    (=> (and (not (= $int5794 0))
             (<= (- 2147483648) $int5794)
             (<= $int5794 2147483647)
             (__VERIFIER_assert (ite (<= 0 (- $scheme5675789 1)) 1 0))
             (__VERIFIER_assert (ite (< (- $scheme5675789 1) $urilen5685790) 1 0))
             ($main_if184 $scheme5675789 $urilen5685790 $tokenlen5695791 $cp5705792 $c5715793))
        ($__VERIFIER_assert_pre (ite (< $scheme5675789 $urilen5685790) 1 0)))))

; __VERIFIER_assert precondition
(assert
  (forall (($cp5705792 Int) ($tokenlen5695791 Int) ($int5794 Int) ($urilen5685790 Int) ($c5715793 Int) ($scheme5675789 Int))
    (=> (and (__VERIFIER_assert (ite (< $scheme5675789 $urilen5685790) 1 0))
             (not (= $int5794 0))
             (<= (- 2147483648) $int5794)
             (<= $int5794 2147483647)
             (__VERIFIER_assert (ite (<= 0 (- $scheme5675789 1)) 1 0))
             (__VERIFIER_assert (ite (< (- $scheme5675789 1) $urilen5685790) 1 0))
             ($main_if184 $scheme5675789 $urilen5685790 $tokenlen5695791 $cp5705792 $c5715793))
        ($__VERIFIER_assert_pre (ite (<= 0 $scheme5675789) 1 0)))))

; loop entry $main_inv449
(assert
  (forall (($cp5705792 Int) ($tokenlen5695791 Int) ($int5794 Int) ($urilen5685790 Int) ($c5715793 Int) ($scheme5675789 Int))
    (=> (and (__VERIFIER_assert (ite (<= 0 $scheme5675789) 1 0))
             (__VERIFIER_assert (ite (< $scheme5675789 $urilen5685790) 1 0))
             (not (= $int5794 0))
             (<= (- 2147483648) $int5794)
             (<= $int5794 2147483647)
             (__VERIFIER_assert (ite (<= 0 (- $scheme5675789 1)) 1 0))
             (__VERIFIER_assert (ite (< (- $scheme5675789 1) $urilen5685790) 1 0))
             ($main_if184 $scheme5675789 $urilen5685790 $tokenlen5695791 $cp5705792 $c5715793))
        ($main_inv449 $scheme5675789 $urilen5685790 $tokenlen5695791 $scheme5675789 $c5715793))))

; loop term $main_sum449
(assert
  (forall (($urilen5685796 Int) ($scheme5675795 Int) ($cp5705798 Int) ($tokenlen5695797 Int) ($c5715799 Int))
    (=> (and (= $cp5705798 (- $urilen5685796 1))
             ($main_inv449 $scheme5675795 $urilen5685796 $tokenlen5695797 $cp5705798 $c5715799))
        ($main_sum449 $scheme5675795 $urilen5685796 $tokenlen5695797 $cp5705798 $c5715799))))

; break $main_sum449
(assert
  (forall (($urilen5685796 Int) ($scheme5675795 Int) ($cp5705798 Int) ($tokenlen5695797 Int) ($int5800 Int) ($c5715799 Int))
    (=> (and (not (= $int5800 0))
             (<= (- 2147483648) $int5800)
             (<= $int5800 2147483647)
             (not (= $cp5705798 (- $urilen5685796 1)))
             ($main_inv449 $scheme5675795 $urilen5685796 $tokenlen5695797 $cp5705798 $c5715799))
        ($main_sum449 $scheme5675795 $urilen5685796 $tokenlen5695797 $cp5705798 $c5715799))))

; if else
(assert
  (forall (($urilen5685796 Int) ($scheme5675795 Int) ($cp5705798 Int) ($tokenlen5695797 Int) ($int5800 Int) ($c5715799 Int))
    (=> (and (= $int5800 0)
             (<= (- 2147483648) $int5800)
             (<= $int5800 2147483647)
             (not (= $cp5705798 (- $urilen5685796 1)))
             ($main_inv449 $scheme5675795 $urilen5685796 $tokenlen5695797 $cp5705798 $c5715799))
        ($main_if185 $scheme5675795 $urilen5685796 $tokenlen5695797 $cp5705798 $c5715799))))

; __VERIFIER_assert precondition
(assert
  (forall (($urilen5685802 Int) ($scheme5675801 Int) ($tokenlen5695803 Int) ($c5715805 Int) ($cp5705804 Int))
    (=> (and ($main_if185 $scheme5675801 $urilen5685802 $tokenlen5695803 $cp5705804 $c5715805))
        ($__VERIFIER_assert_pre (ite (< $cp5705804 $urilen5685802) 1 0)))))

; __VERIFIER_assert precondition
(assert
  (forall (($urilen5685802 Int) ($scheme5675801 Int) ($tokenlen5695803 Int) ($c5715805 Int) ($cp5705804 Int))
    (=> (and (__VERIFIER_assert (ite (< $cp5705804 $urilen5685802) 1 0))
             ($main_if185 $scheme5675801 $urilen5685802 $tokenlen5695803 $cp5705804 $c5715805))
        ($__VERIFIER_assert_pre (ite (<= 0 $cp5705804) 1 0)))))

; forwards $main_inv449
(assert
  (forall (($urilen5685802 Int) ($scheme5675801 Int) ($tokenlen5695803 Int) ($c5715805 Int) ($cp5705804 Int))
    (=> (and (__VERIFIER_assert (ite (<= 0 $cp5705804) 1 0))
             (__VERIFIER_assert (ite (< $cp5705804 $urilen5685802) 1 0))
             ($main_if185 $scheme5675801 $urilen5685802 $tokenlen5695803 $cp5705804 $c5715805))
        ($main_inv449 $scheme5675801 $urilen5685802 $tokenlen5695803 (+ $cp5705804 1) $c5715805))))

; __VERIFIER_assert precondition
(assert
  (forall (($scheme5675806 Int) ($cp5705809 Int) ($urilen5685807 Int) ($c5715810 Int) ($tokenlen5695808 Int))
    (=> (and ($main_sum449 $scheme5675806 $urilen5685807 $tokenlen5695808 $cp5705809 $c5715810))
        ($__VERIFIER_assert_pre (ite (< $cp5705809 $urilen5685807) 1 0)))))

; __VERIFIER_assert precondition
(assert
  (forall (($scheme5675806 Int) ($cp5705809 Int) ($urilen5685807 Int) ($c5715810 Int) ($tokenlen5695808 Int))
    (=> (and (__VERIFIER_assert (ite (< $cp5705809 $urilen5685807) 1 0))
             ($main_sum449 $scheme5675806 $urilen5685807 $tokenlen5695808 $cp5705809 $c5715810))
        ($__VERIFIER_assert_pre (ite (<= 0 $cp5705809) 1 0)))))

; goto END
(assert
  (forall (($scheme5675806 Int) ($cp5705809 Int) ($urilen5685807 Int) ($c5715810 Int) ($tokenlen5695808 Int))
    (=> (and (= $cp5705809 (- $urilen5685807 1))
             (__VERIFIER_assert (ite (<= 0 $cp5705809) 1 0))
             (__VERIFIER_assert (ite (< $cp5705809 $urilen5685807) 1 0))
             ($main_sum449 $scheme5675806 $urilen5685807 $tokenlen5695808 $cp5705809 $c5715810))
        ($main_END $scheme5675806 $urilen5685807 $tokenlen5695808 $cp5705809 $c5715810))))

; if else
(assert
  (forall (($scheme5675806 Int) ($cp5705809 Int) ($urilen5685807 Int) ($c5715810 Int) ($tokenlen5695808 Int))
    (=> (and (not (= $cp5705809 (- $urilen5685807 1)))
             (__VERIFIER_assert (ite (<= 0 $cp5705809) 1 0))
             (__VERIFIER_assert (ite (< $cp5705809 $urilen5685807) 1 0))
             ($main_sum449 $scheme5675806 $urilen5685807 $tokenlen5695808 $cp5705809 $c5715810))
        ($main_if186 $scheme5675806 $urilen5685807 $tokenlen5695808 $cp5705809 $c5715810))))

; __VERIFIER_assert precondition
(assert
  (forall (($scheme5675811 Int) ($c5715815 Int) ($urilen5685812 Int) ($tokenlen5695813 Int) ($cp5705814 Int))
    (=> (and ($main_if186 $scheme5675811 $urilen5685812 $tokenlen5695813 $cp5705814 $c5715815))
        ($__VERIFIER_assert_pre (ite (< (+ $cp5705814 1) $urilen5685812) 1 0)))))

; __VERIFIER_assert precondition
(assert
  (forall (($scheme5675811 Int) ($c5715815 Int) ($urilen5685812 Int) ($tokenlen5695813 Int) ($cp5705814 Int))
    (=> (and (__VERIFIER_assert (ite (< (+ $cp5705814 1) $urilen5685812) 1 0))
             ($main_if186 $scheme5675811 $urilen5685812 $tokenlen5695813 $cp5705814 $c5715815))
        ($__VERIFIER_assert_pre (ite (<= 0 (+ $cp5705814 1)) 1 0)))))

; goto END
(assert
  (forall (($scheme5675811 Int) ($c5715815 Int) ($urilen5685812 Int) ($tokenlen5695813 Int) ($cp5705814 Int))
    (=> (and (= (+ $cp5705814 1) (- $urilen5685812 1))
             (__VERIFIER_assert (ite (<= 0 (+ $cp5705814 1)) 1 0))
             (__VERIFIER_assert (ite (< (+ $cp5705814 1) $urilen5685812) 1 0))
             ($main_if186 $scheme5675811 $urilen5685812 $tokenlen5695813 $cp5705814 $c5715815))
        ($main_END $scheme5675811 $urilen5685812 $tokenlen5695813 $cp5705814 $c5715815))))

; if else
(assert
  (forall (($scheme5675811 Int) ($c5715815 Int) ($urilen5685812 Int) ($tokenlen5695813 Int) ($cp5705814 Int))
    (=> (and (not (= (+ $cp5705814 1) (- $urilen5685812 1)))
             (__VERIFIER_assert (ite (<= 0 (+ $cp5705814 1)) 1 0))
             (__VERIFIER_assert (ite (< (+ $cp5705814 1) $urilen5685812) 1 0))
             ($main_if186 $scheme5675811 $urilen5685812 $tokenlen5695813 $cp5705814 $c5715815))
        ($main_if187 $scheme5675811 $urilen5685812 $tokenlen5695813 $cp5705814 $c5715815))))

; __VERIFIER_assert precondition
(assert
  (forall (($c5715820 Int) ($cp5705819 Int) ($int5821 Int) ($tokenlen5695818 Int) ($urilen5685817 Int) ($scheme5675816 Int))
    (=> (and (not (= $int5821 0))
             (<= (- 2147483648) $int5821)
             (<= $int5821 2147483647)
             ($main_if187 $scheme5675816 $urilen5685817 $tokenlen5695818 $cp5705819 $c5715820))
        ($__VERIFIER_assert_pre (ite (< (+ $cp5705819 1) $urilen5685817) 1 0)))))

; __VERIFIER_assert precondition
(assert
  (forall (($c5715820 Int) ($cp5705819 Int) ($int5821 Int) ($tokenlen5695818 Int) ($urilen5685817 Int) ($scheme5675816 Int))
    (=> (and (__VERIFIER_assert (ite (< (+ $cp5705819 1) $urilen5685817) 1 0))
             (not (= $int5821 0))
             (<= (- 2147483648) $int5821)
             (<= $int5821 2147483647)
             ($main_if187 $scheme5675816 $urilen5685817 $tokenlen5695818 $cp5705819 $c5715820))
        ($__VERIFIER_assert_pre (ite (<= 0 (+ $cp5705819 1)) 1 0)))))

; loop entry $main_inv450
(assert
  (forall (($c5715820 Int) ($cp5705819 Int) ($int5821 Int) ($tokenlen5695818 Int) ($urilen5685817 Int) ($scheme5675816 Int))
    (=> (and (__VERIFIER_assert (ite (<= 0 (+ $cp5705819 1)) 1 0))
             (__VERIFIER_assert (ite (< (+ $cp5705819 1) $urilen5685817) 1 0))
             (not (= $int5821 0))
             (<= (- 2147483648) $int5821)
             (<= $int5821 2147483647)
             ($main_if187 $scheme5675816 $urilen5685817 $tokenlen5695818 $cp5705819 $c5715820))
        ($main_inv450 (+ $cp5705819 1) $urilen5685817 $tokenlen5695818 (+ $cp5705819 1) 0))))

; loop term $main_sum450
(assert
  (forall (($c5715826 Int) ($urilen5685823 Int) ($tokenlen5695824 Int) ($cp5705825 Int) ($scheme5675822 Int))
    (=> (and (not (and (not (= $cp5705825 (- $urilen5685823 1))) (< $c5715826 (- $tokenlen5695824 1))))
             ($main_inv450 $scheme5675822 $urilen5685823 $tokenlen5695824 $cp5705825 $c5715826))
        ($main_sum450 $scheme5675822 $urilen5685823 $tokenlen5695824 $cp5705825 $c5715826))))

; __VERIFIER_assert precondition
(assert
  (forall (($c5715826 Int) ($urilen5685823 Int) ($tokenlen5695824 Int) ($cp5705825 Int) ($scheme5675822 Int))
    (=> (and (not (= $cp5705825 (- $urilen5685823 1)))
             (< $c5715826 (- $tokenlen5695824 1))
             ($main_inv450 $scheme5675822 $urilen5685823 $tokenlen5695824 $cp5705825 $c5715826))
        ($__VERIFIER_assert_pre (ite (< $cp5705825 $urilen5685823) 1 0)))))

; __VERIFIER_assert precondition
(assert
  (forall (($c5715826 Int) ($urilen5685823 Int) ($tokenlen5695824 Int) ($cp5705825 Int) ($scheme5675822 Int))
    (=> (and (__VERIFIER_assert (ite (< $cp5705825 $urilen5685823) 1 0))
             (not (= $cp5705825 (- $urilen5685823 1)))
             (< $c5715826 (- $tokenlen5695824 1))
             ($main_inv450 $scheme5675822 $urilen5685823 $tokenlen5695824 $cp5705825 $c5715826))
        ($__VERIFIER_assert_pre (ite (<= 0 $cp5705825) 1 0)))))

; __VERIFIER_assert precondition
(assert
  (forall (($c5715826 Int) ($urilen5685823 Int) ($tokenlen5695824 Int) ($cp5705825 Int) ($scheme5675822 Int) ($int5827 Int))
    (=> (and (not (= $int5827 0))
             (<= (- 2147483648) $int5827)
             (<= $int5827 2147483647)
             (__VERIFIER_assert (ite (<= 0 $cp5705825) 1 0))
             (__VERIFIER_assert (ite (< $cp5705825 $urilen5685823) 1 0))
             (not (= $cp5705825 (- $urilen5685823 1)))
             (< $c5715826 (- $tokenlen5695824 1))
             ($main_inv450 $scheme5675822 $urilen5685823 $tokenlen5695824 $cp5705825 $c5715826))
        ($__VERIFIER_assert_pre (ite (< (+ $c5715826 1) $tokenlen5695824) 1 0)))))

; __VERIFIER_assert precondition
(assert
  (forall (($c5715826 Int) ($urilen5685823 Int) ($tokenlen5695824 Int) ($cp5705825 Int) ($scheme5675822 Int) ($int5827 Int))
    (=> (and (__VERIFIER_assert (ite (< (+ $c5715826 1) $tokenlen5695824) 1 0))
             (not (= $int5827 0))
             (<= (- 2147483648) $int5827)
             (<= $int5827 2147483647)
             (__VERIFIER_assert (ite (<= 0 $cp5705825) 1 0))
             (__VERIFIER_assert (ite (< $cp5705825 $urilen5685823) 1 0))
             (not (= $cp5705825 (- $urilen5685823 1)))
             (< $c5715826 (- $tokenlen5695824 1))
             ($main_inv450 $scheme5675822 $urilen5685823 $tokenlen5695824 $cp5705825 $c5715826))
        ($__VERIFIER_assert_pre (ite (<= 0 (+ $c5715826 1)) 1 0)))))

; __VERIFIER_assert precondition
(assert
  (forall (($c5715826 Int) ($urilen5685823 Int) ($tokenlen5695824 Int) ($cp5705825 Int) ($scheme5675822 Int) ($int5827 Int))
    (=> (and (__VERIFIER_assert (ite (<= 0 (+ $c5715826 1)) 1 0))
             (__VERIFIER_assert (ite (< (+ $c5715826 1) $tokenlen5695824) 1 0))
             (not (= $int5827 0))
             (<= (- 2147483648) $int5827)
             (<= $int5827 2147483647)
             (__VERIFIER_assert (ite (<= 0 $cp5705825) 1 0))
             (__VERIFIER_assert (ite (< $cp5705825 $urilen5685823) 1 0))
             (not (= $cp5705825 (- $urilen5685823 1)))
             (< $c5715826 (- $tokenlen5695824 1))
             ($main_inv450 $scheme5675822 $urilen5685823 $tokenlen5695824 $cp5705825 $c5715826))
        ($__VERIFIER_assert_pre (ite (< $cp5705825 $urilen5685823) 1 0)))))

; __VERIFIER_assert precondition
(assert
  (forall (($c5715826 Int) ($urilen5685823 Int) ($tokenlen5695824 Int) ($cp5705825 Int) ($scheme5675822 Int) ($int5827 Int))
    (=> (and (__VERIFIER_assert (ite (< $cp5705825 $urilen5685823) 1 0))
             (__VERIFIER_assert (ite (<= 0 (+ $c5715826 1)) 1 0))
             (__VERIFIER_assert (ite (< (+ $c5715826 1) $tokenlen5695824) 1 0))
             (not (= $int5827 0))
             (<= (- 2147483648) $int5827)
             (<= $int5827 2147483647)
             (__VERIFIER_assert (ite (<= 0 $cp5705825) 1 0))
             (__VERIFIER_assert (ite (< $cp5705825 $urilen5685823) 1 0))
             (not (= $cp5705825 (- $urilen5685823 1)))
             (< $c5715826 (- $tokenlen5695824 1))
             ($main_inv450 $scheme5675822 $urilen5685823 $tokenlen5695824 $cp5705825 $c5715826))
        ($__VERIFIER_assert_pre (ite (<= 0 $cp5705825) 1 0)))))

; if then
(assert
  (forall (($c5715826 Int) ($urilen5685823 Int) ($tokenlen5695824 Int) ($cp5705825 Int) ($scheme5675822 Int) ($int5827 Int))
    (=> (and (__VERIFIER_assert (ite (<= 0 $cp5705825) 1 0))
             (__VERIFIER_assert (ite (< $cp5705825 $urilen5685823) 1 0))
             (__VERIFIER_assert (ite (<= 0 (+ $c5715826 1)) 1 0))
             (__VERIFIER_assert (ite (< (+ $c5715826 1) $tokenlen5695824) 1 0))
             (not (= $int5827 0))
             (<= (- 2147483648) $int5827)
             (<= $int5827 2147483647)
             (__VERIFIER_assert (ite (<= 0 $cp5705825) 1 0))
             (__VERIFIER_assert (ite (< $cp5705825 $urilen5685823) 1 0))
             (not (= $cp5705825 (- $urilen5685823 1)))
             (< $c5715826 (- $tokenlen5695824 1))
             ($main_inv450 $scheme5675822 $urilen5685823 $tokenlen5695824 $cp5705825 $c5715826))
        ($main_if188 $scheme5675822 $urilen5685823 $tokenlen5695824 $cp5705825 (+ $c5715826 1)))))

; if else
(assert
  (forall (($c5715826 Int) ($urilen5685823 Int) ($tokenlen5695824 Int) ($cp5705825 Int) ($scheme5675822 Int) ($int5827 Int))
    (=> (and (= $int5827 0)
             (<= (- 2147483648) $int5827)
             (<= $int5827 2147483647)
             (__VERIFIER_assert (ite (<= 0 $cp5705825) 1 0))
             (__VERIFIER_assert (ite (< $cp5705825 $urilen5685823) 1 0))
             (not (= $cp5705825 (- $urilen5685823 1)))
             (< $c5715826 (- $tokenlen5695824 1))
             ($main_inv450 $scheme5675822 $urilen5685823 $tokenlen5695824 $cp5705825 $c5715826))
        ($main_if188 $scheme5675822 $urilen5685823 $tokenlen5695824 $cp5705825 $c5715826))))

; forwards $main_inv450
(assert
  (forall (($c5715832 Int) ($cp5705831 Int) ($tokenlen5695830 Int) ($scheme5675828 Int) ($urilen5685829 Int))
    (=> (and ($main_if188 $scheme5675828 $urilen5685829 $tokenlen5695830 $cp5705831 $c5715832))
        ($main_inv450 $scheme5675828 $urilen5685829 $tokenlen5695830 (+ $cp5705831 1) $c5715832))))

; goto END
(assert
  (forall (($c5715837 Int) ($tokenlen5695835 Int) ($urilen5685834 Int) ($cp5705836 Int) ($scheme5675833 Int))
    (=> (and ($main_sum450 $scheme5675833 $urilen5685834 $tokenlen5695835 $cp5705836 $c5715837))
        ($main_END $scheme5675833 $urilen5685834 $tokenlen5695835 $cp5705836 $c5715837))))

; if else
(assert
  (forall (($c5715820 Int) ($cp5705819 Int) ($int5821 Int) ($tokenlen5695818 Int) ($urilen5685817 Int) ($scheme5675816 Int))
    (=> (and (= $int5821 0)
             (<= (- 2147483648) $int5821)
             (<= $int5821 2147483647)
             ($main_if187 $scheme5675816 $urilen5685817 $tokenlen5695818 $cp5705819 $c5715820))
        ($main_if189 (+ $cp5705819 1) $urilen5685817 $tokenlen5695818 (+ $cp5705819 1) $c5715820))))

; if then
(assert
  (forall (($urilen5685839 Int) ($tokenlen5695840 Int) ($cp5705841 Int) ($c5715842 Int) ($scheme5675838 Int))
    (=> (and ($main_if189 $scheme5675838 $urilen5685839 $tokenlen5695840 $cp5705841 $c5715842))
        ($main_if190 $scheme5675838 $urilen5685839 $tokenlen5695840 $cp5705841 $c5715842))))

; if else
(assert
  (forall (($cp5705792 Int) ($tokenlen5695791 Int) ($int5794 Int) ($urilen5685790 Int) ($c5715793 Int) ($scheme5675789 Int))
    (=> (and (= $int5794 0)
             (<= (- 2147483648) $int5794)
             (<= $int5794 2147483647)
             (__VERIFIER_assert (ite (<= 0 (- $scheme5675789 1)) 1 0))
             (__VERIFIER_assert (ite (< (- $scheme5675789 1) $urilen5685790) 1 0))
             ($main_if184 $scheme5675789 $urilen5685790 $tokenlen5695791 $cp5705792 $c5715793))
        ($main_if190 $scheme5675789 $urilen5685790 $tokenlen5695791 $scheme5675789 $c5715793))))

; label END
(assert
  (forall (($scheme5675843 Int) ($c5715847 Int) ($tokenlen5695845 Int) ($urilen5685844 Int) ($cp5705846 Int))
    (=> (and ($main_if190 $scheme5675843 $urilen5685844 $tokenlen5695845 $cp5705846 $c5715847))
        ($main_END $scheme5675843 $urilen5685844 $tokenlen5695845 $cp5705846 $c5715847))))

(check-sat)
